1
0 0
1 1
28
29
0 1
1 2
27
28
0 2
1 3
26
27
0 3
1 4
25
26
0 4
1 5
24
25
0 5
1 6
23
24
0 6
1 7
22
23
0 7
1 8
21
22
0 8
1 9
20
21
0 9
1 10
19
20
0 10
1 11
18
19
0 11
1 12
17
18
0 12
1 13
16
17
0 13
1 14
15
16
0 14
1 15
14
15
0 15
1 16
13
14
0 16
1 17
12
13
0 17
1 18
11
12
0 18
1 19
10
11
0 19
1 20
9
10
0 20
1 21
8
9
0 21
1 22
7
8
0 22
1 23
6
7
0 23
1 24
5
6
0 24
1 25
4
5
0 25
1 26
3
4
0 26
1 27
2
3
0 27
1 28
1
2
0 28
1 29
0
1
